- 0 00 0 0 0 0 0 0 0
0 1 01 1 0 0 0 0 0 0 0
1 2 02 0 1 0 0 0 0 0 0
2 4 04 0 0 1 0 0 0 0 0
3 8 08 0 0 0 1 0 0 0 0
4 16 10 0 0 0 0 1 0 0 0
5 32 20 0 0 0 0 0 1 0 0
6 64 40 0 0 0 0 0 0 1 0
7 128 80 0 0 0 0 0 0 0 1
8 29 1D 1 0 1 1 1 0 0 0
9 58 3A 0 1 0 1 1 1 0 0
10 116 74 0 0 1 0 1 1 1 0
11 232 E8 0 0 0 1 0 1 1 1
12 205 CD 1 0 1 1 0 0 1 1
13 135 87 1 1 1 0 0 0 0 1
14 19 13 1 1 0 0 1 0 0 0
15 38 26 0 1 1 0 0 1 0 0
16 76 4C 0 0 1 1 0 0 1 0
17 152 98 0 0 0 1 1 0 0 1
18 45 2D 1 0 1 1 0 1 0 0
19 90 5A 0 1 0 1 1 0 1 0
20 180 B4 0 0 1 0 1 1 0 1
21 117 75 1 0 1 0 1 1 1 0
22 234 EA 0 1 0 1 0 1 1 1
23 201 C9 1 0 0 1 0 0 1 1
24 143 8F 1 1 1 1 0 0 0 1
25 3 3 1 1 0 0 0 0 0 0
26 6 6 0 1 1 0 0 0 0 0
27 12 C 0 0 1 1 0 0 0 0
28 24 18 0 0 0 1 1 0 0 0
29 48 30 0 0 0 0 1 1 0 0
30 96 60 0 0 0 0 0 1 1 0
31 192 C0 0 0 0 0 0 0 1 1
32 157 9D 1 0 1 1 1 0 0 1
33 39 27 1 1 1 0 0 1 0 0
34 78 4E 0 1 1 1 0 0 1 0
35 156 9C 0 0 1 1 1 0 0 1
36 37 25 1 0 1 0 0 1 0 0
37 74 4A 0 1 0 1 0 0 1 0
38 148 94 0 0 1 0 1 0 0 1
39 53 35 1 0 1 0 1 1 0 0
40 106 6A 0 1 0 1 0 1 1 0
41 212 D4 0 0 1 0 1 0 1 1
42 181 B5 1 0 1 0 1 1 0 1
43 119 77 1 1 1 0 1 1 1 0
44 238 EE 0 1 1 1 0 1 1 1
45 193 C1 1 0 0 0 0 0 1 1
46 159 9F 1 1 1 1 1 0 0 1
47 35 23 1 1 0 0 0 1 0 0
48 70 46 0 1 1 0 0 0 1 0
49 140 8C 0 0 1 1 0 0 0 1
50 5 5 1 0 1 0 0 0 0 0
51 10 A 0 1 0 1 0 0 0 0
52 20 14 0 0 1 0 1 0 0 0
53 40 28 0 0 0 1 0 1 0 0
54 80 50 0 0 0 0 1 0 1 0
55 160 A0 0 0 0 0 0 1 0 1
56 93 5D 1 0 1 1 1 0 1 0
57 186 BA 0 1 0 1 1 1 0 1
58 105 69 1 0 0 1 0 1 1 0
59 210 D2 0 1 0 0 1 0 1 1
60 185 B9 1 0 0 1 1 1 0 1
61 111 6F 1 1 1 1 0 1 1 0
62 222 DE 0 1 1 1 1 0 1 1
63 161 A1 1 0 0 0 0 1 0 1
64 95 5F 1 1 1 1 1 0 1 0
65 190 BE 0 1 1 1 1 1 0 1
66 97 61 1 0 0 0 0 1 1 0
67 194 C2 0 1 0 0 0 0 1 1
68 153 99 1 0 0 1 1 0 0 1
69 47 2F 1 1 1 1 0 1 0 0
70 94 5E 0 1 1 1 1 0 1 0
71 188 BC 0 0 1 1 1 1 0 1
72 101 65 1 0 1 0 0 1 1 0
73 202 CA 0 1 0 1 0 0 1 1 
74 137 89 1 0 0 1 0 0 0 1
75 15 F 1 1 1 1 0 0 0 0
76 30 1E 0 1 1 1 1 0 0 0
77 60 3C 0 0 1 1 1 1 0 0
78 120 78 0 0 0 1 1 1 1 0
79 240 F0 0 0 0 0 1 1 1 1
80 253 FD 1 0 1 1 1 1 1 1
81 231 E7 1 1 1 0 0 1 1 1
82 211 D3 1 1 0 0 1 0 1 1
83 187 BB 1 1 0 1 1 1 0 1
84 107 6B 1 1 0 1 0 1 1 0
85 214 D6 0 1 1 0 1 0 1 1
86 177 B1 1 0 0 0 1 1 0 1
87 127 7F 1 1 1 1 1 1 1 0
88 254 FE 0 1 1 1 1 1 1 1
89 225 E1 1 0 0 0 0 1 1 1
90 223 DF 1 1 1 1 1 0 1 1
91 163 A3 1 1 0 0 0 1 0 1
92 91 5B 1 1 0 1 1 0 1 0
93 182 B6 0 1 1 0 1 1 0 1
94 113 71 1 0 0 0 1 1 1 0
95 226 E2 0 1 0 0 0 1 1 1
96 217 D9 1 0 0 1 1 0 1 1
97 175 AF 1 1 1 1 0 1 0 1
98 67 43 1 1 0 0 0 0 1 0
99 134 86 0 1 1 0 0 0 0 1
100 17 11 1 0 0 0 1 0 0 0
101 34 22 0 1 0 0 0 1 0 0
102 68 44 0 0 1 0 0 0 1 0
103 136 88 0 0 0 1 0 0 0 1
104 13 D 1 0 1 1 0 0 0 0
105 26 1A 0 1 0 1 1 0 0 0
106 52 34 0 0 1 0 1 1 0 0
107 104 68 0 0 0 1 0 1 1 0
108 208 D0 0 0 0 0 1 0 1 1
109 189 BD 1 0 1 1 1 1 0 1
110 103 67 1 1 1 0 0 1 1 0
111 206 CE 0 1 1 1 0 0 1 1
112 129 81 1 0 0 0 0 0 0 1
113 31 1F 1 1 1 1 1 0 0 0
114 62 3E 0 1 1 1 1 1 0 0
115 124 7C 0 0 1 1 1 1 1 0
116 248 F8 0 0 0 1 1 1 1 1
117 237 ED 1 0 1 1 0 1 1 1
118 199 C7 1 1 1 0 0 0 1 1
119 147 93 1 1 0 0 1 0 0 1
120 59 3B 1 1 0 1 1 1 0 0
121 118 76 0 1 1 0 1 1 1 0
122 236 EC 0 0 1 1 0 1 1 1
123 197 C5 1 0 1 0 0 0 1 1
124 151 97 1 1 1 0 1 0 0 1
125 51 33 1 1 0 0 1 1 0 0
126 102 66 0 1 1 0 0 1 1 0
127 204 CC 0 0 1 1 0 0 1 1
128 133 85 1 0 1 0 0 0 0 1
129 23 17 1 1 1 0 1 0 0 0
130 46 2E 0 1 1 1 0 1 0 0
131 92 5C 0 0 1 1 1 0 1 0
132 184 B8 0 0 0 1 1 1 0 1
133 109 6D 1 0 1 1 0 1 1 0
134 218 DA 0 1 0 1 1 0 1 1
135 169 A9 1 0 0 1 0 1 0 1
136 79 4F 1 1 1 1 0 0 1 0
137 158 9E 0 1 1 1 1 0 0 1
138 33 21 1 0 0 0 0 1 0 0
139 66 42 0 1 0 0 0 0 1 0
140 132 84 0 0 1 0 0 0 0 1
141 21 15 1 0 1 0 1 0 0 0
142 42 2A 0 1 0 1 0 1 0 0
143 84 54 0 0 1 0 1 0 1 0
144 168 A8 0 0 0 1 0 1 0 1
145 77 4D 1 0 1 1 0 0 1 0
146 154 9A 0 1 0 1 1 0 0 1
147 41 29 1 0 0 1 0 1 0 0
148 82 52 0 1 0 0 1 0 1 0
149 164 A4 0 0 1 0 0 1 0 1
150 85 55 1 0 1 0 1 0 1 0
151 170 AA 0 1 0 1 0 1 0 1
152 73 49 1 0 0 1 0 0 1 0
153 146 92 0 1 0 0 1 0 0 1
154 57 39 1 0 0 1 1 1 0 0
155 114 72 0 1 0 0 1 1 1 0
156 228 E4 0 0 1 0 0 1 1 1
157 213 D5 1 0 1 0 1 0 1 1
158 183 B7 1 1 1 0 1 1 0 1
159 115 73 1 1 0 0 1 1 1 0
160 230 E6 0 1 1 0 0 1 1 1
161 209 D1 1 0 0 0 1 0 1 1
162 191 BF 1 1 1 1 1 1 0 1
163 99 63 1 1 0 0 0 1 1 0
164 198 C6 0 1 1 0 0 0 1 1
165 145 91 1 0 0 0 1 0 0 1
166 63 3F 1 1 1 1 1 1 0 0
167 126 7E 0 1 1 1 1 1 1 0
168 252 FC 0 0 1 1 1 1 1 1
169 229 E5 1 0 1 0 0 1 1 1
170 215 D7 1 1 1 0 1 0 1 1
171 179 B3 1 1 0 0 1 1 0 1
172 123 7B 1 1 0 1 1 1 1 0
173 246 F6 0 1 1 0 1 1 1 1
174 241 F1 1 0 0 0 1 1 1 1
175 255 FF 1 1 1 1 1 1 1 1
176 227 E3 1 1 0 0 0 1 1 1
177 219 DB 1 1 0 1 1 0 1 1
178 171 AB 1 1 0 1 0 1 0 1
179 75 4B 1 1 0 1 0 0 1 0
180 150 96 0 1 1 0 1 0 0 1
181 49 31 1 0 0 0 1 1 0 0
182 98 62 0 1 0 0 0 1 1 0
183 196 C4 0 0 1 0 0 0 1 1
184 149 95 1 0 1 0 1 0 0 1
185 55 37 1 1 1 0 1 1 0 0
186 110 6E 0 1 1 1 0 1 1 0
187 220 DC 0 0 1 1 1 0 1 1
188 165 A5 1 0 1 0 0 1 0 1
189 87 57 1 1 1 0 1 0 1 0
190 174 AE 0 1 1 1 0 1 0 1
191 65 41 1 0 0 0 0 0 1 0
192 130 82 0 1 0 0 0 0 0 1
193 25 19 1 0 0 1 1 0 0 0
194 50 32 0 1 0 0 1 1 0 0
195 100 64 0 0 1 0 0 1 1 0
196 200 C8 0 0 0 1 0 0 1 1
197 141 8D 1 0 1 1 0 0 0 1
198 7 7 1 1 1 0 0 0 0 0
199 14 E 0 1 1 1 0 0 0 0
200 28 1C 0 0 1 1 1 0 0 0
201 56 38 0 0 0 1 1 1 0 0
202 112 70 0 0 0 0 1 1 1 0
203 224 E0 0 0 0 0 0 1 1 1
204 221 DD 1 0 1 1 1 0 1 1
205 167 A7 1 1 1 0 0 1 0 1
206 83 53 1 1 0 0 1 0 1 0
207 166 A6 0 1 1 0 0 1 0 1
208 81 51 1 0 0 0 1 0 1 0
209 162 A2 0 1 0 0 0 1 0 1
210 89 59 1 0 0 1 1 0 1 0
211 178 B2 0 1 0 0 1 1 0 1
212 121 79 1 0 0 1 1 1 1 0
213 242 F2 0 1 0 0 1 1 1 1
214 249 F9 1 0 0 1 1 1 1 1
215 239 EF 1 1 1 1 0 1 1 1
216 195 C3 1 1 0 0 0 0 1 1
217 155 9B 1 1 0 1 1 0 0 1
218 43 2B 1 1 0 1 0 1 0 0
219 86 56 0 1 1 0 1 0 1 0
220 172 AC 0 0 1 1 0 1 0 1
221 69 45 1 0 1 0 0 0 1 0
222 138 8A 0 1 0 1 0 0 0 1
223 9 9 1 0 0 1 0 0 0 0
224 18 12 0 1 0 0 1 0 0 0
225 36 24 0 0 1 0 0 1 0 0
226 72 48 0 0 0 1 0 0 1 0
227 144 90 0 0 0 0 1 0 0 1
228 61 3D 1 0 1 1 1 1 0 0
229 122 7A 0 1 0 1 1 1 1 0
230 244 F4 0 0 1 0 1 1 1 1
231 245 F5 1 0 1 0 1 1 1 1
232 247 F7 1 1 1 0 1 1 1 1
233 243 F3 1 1 0 0 1 1 1 1
234 251 FB 1 1 0 1 1 1 1 1
235 235 EB 1 1 0 1 0 1 1 1
236 203 CB 1 1 0 1 0 0 1 1
237 139 8B 1 1 0 1 0 0 0 1
238 11 B 1 1 0 1 0 0 0 0
239 22 16 0 1 1 0 1 0 0 0
240 44 2C 0 0 1 1 0 1 0 0
241 88 58 0 0 0 1 1 0 1 0
242 176 B0 0 0 0 0 1 1 0 1
243 125 7D 1 0 1 1 1 1 1 0
244 250 FA 0 1 0 1 1 1 1 1
245 233 E9 1 0 0 1 0 1 1 1
246 207 CF 1 1 1 1 0 0 1 1
247 131 83 1 1 0 0 0 0 0 1
248 27 1B 1 1 0 1 1 0 0 0
249 54 36 0 1 1 0 1 1 0 0
250 108 6C 0 0 1 1 0 1 1 0
251 216 D8 0 0 0 1 1 0 1 1
252 173 AD 1 0 1 1 0 1 0 1
253 71 47 1 1 1 0 0 0 1 0
254 142 8E 0 1 1 1 0 0 0 1
